InboundTrucks  = 20;
OutboundTrucks = 20;
InboundDoors   = 15;
OutboundDoors  = 15;
ReleaseTime    = [17,72,108,102,97,8,32,15,63,97,57,60,83,48,100,26,12,62,3,114];
UnloadTime     = [35,11,34,34,16,12,27,22,35,15,23,33,21,28,30,34,22,34,28,16];
LoadTime       = [6,5,20,11,9,5,8,18,9,8,13,18,7,17,7,14,16,10,17,6];
TransferTime   = [| 0,0,0,0,0,0,5,7,0,0,0,0,0,0,0,0,0,8,6,3 | 6,0,0,0,4,8,0,0,0,0,0,0,2,0,0,0,0,0,7,0 | 3,3,0,7,0,0,0,0,0,0,0,0,8,0,8,0,0,0,3,0 | 0,0,3,0,5,2,0,0,0,0,0,0,2,7,0,0,0,0,0,0 | 0,4,0,2,0,0,0,3,0,0,0,0,4,0,0,0,0,0,2,0 | 0,0,0,0,0,5,0,0,0,0,0,0,0,7,0,0,0,0,0,0 | 0,0,0,0,0,0,0,0,0,0,0,5,0,0,0,0,0,0,0,0 | 2,0,8,0,0,0,8,0,2,3,0,0,0,4,0,0,8,0,4,7 | 0,4,0,5,0,0,0,0,3,0,0,0,0,0,0,4,0,0,0,8 | 5,0,7,0,0,0,0,5,0,0,0,4,0,0,0,0,7,0,0,5 | 0,0,0,0,0,7,0,0,0,0,0,0,0,0,0,6,7,0,0,3 | 0,2,0,0,0,0,0,0,0,0,0,0,0,0,0,0,0,0,3,0 | 6,0,0,0,7,0,4,0,0,0,7,7,0,0,4,0,3,8,0,0 | 8,0,0,0,0,0,8,0,0,0,0,0,7,0,3,0,0,8,0,0 | 0,0,0,0,0,0,0,4,2,0,0,0,3,5,0,0,0,8,0,0 | 0,0,0,0,0,0,0,3,0,0,0,0,0,0,0,0,0,0,0,0 | 0,6,0,7,0,0,2,3,0,0,0,2,0,3,6,0,0,0,0,8 | 4,0,3,8,0,7,2,3,0,6,0,0,2,0,0,0,0,0,0,0 | 0,0,0,0,0,5,8,0,7,0,0,0,0,6,0,8,0,0,0,0 | 0,6,0,0,8,0,0,0,2,7,0,0,7,0,0,7,0,0,0,0 |];
